c This is an instance of the exact track of PACE 2020 Challenge, see https://pacechallenge.org/2020/ 
c TYPE: infrastracture 
c ORIGIN: Open street maps 
c DESCRIPTION: Czernikowo (Poland): a road network downloaded from open street maps using osmnx Python package 
p tdp 163 195
1 100
1 105
1 130
2 11
2 9
2 16
3 70
3 79
3 97
4 132
4 109
4 135
4 131
5 12
5 21
6 7
6 150
7 9
8 9
10 13
10 12
12 17
13 17
13 15
14 16
16 19
17 20
18 19
19 27
20 26
20 30
21 151
21 26
22 24
23 25
24 28
24 25
25 27
25 29
26 159
27 30
30 38
31 32
31 37
31 153
33 138
33 42
33 155
34 43
35 39
35 155
35 47
36 43
36 139
36 41
37 40
37 145
38 46
38 118
39 141
41 51
41 54
42 44
42 45
43 46
43 54
45 47
45 49
46 53
47 50
48 145
48 142
48 61
49 50
49 51
50 55
51 52
52 55
52 58
53 66
53 59
54 58
55 141
56 62
57 63
58 73
59 66
59 159
60 78
61 69
61 70
62 136
62 63
63 68
64 90
65 136
66 73
66 70
67 82
68 76
68 75
69 72
69 81
70 79
71 76
73 78
74 95
75 136
75 146
76 146
77 83
78 82
79 86
80 142
80 92
80 137
82 85
83 146
83 84
84 88
84 87
85 90
85 141
86 91
86 89
88 143
88 97
89 104
89 107
90 93
92 143
92 94
93 95
93 102
94 99
94 100
95 98
96 102
97 132
97 104
98 140
98 106
99 101
100 126
101 103
101 108
102 106
103 111
103 126
104 162
105 127
105 131
107 156
107 110
109 116
109 114
112 113
113 127
113 114
115 163
115 135
115 162
117 159
117 118
117 119
118 120
119 120
119 149
120 122
121 122
122 123
124 129
125 126
126 127
127 133
128 129
129 130
130 131
130 132
131 133
132 135
133 134
138 139
142 143
143 144
147 149
148 149
150 158
151 152
151 153
153 154
156 161
156 157
160 161
161 162
